AES/1_2_8/ssaes_r1-20_c2_rw1_e8_f0_k1-20_aes_1base_box_aes_mc_bidirectional/ExperimentMinisat_r20_k4cnf_2011-12-02-122255/Result
WARNING: for repeatability, setting FPU to use double precision
============================[ Problem Statistics ]=============================
|                                                                             |
|  Number of variables:          1648                                         |
|  Number of clauses:          267784                                         |
|  Parse time:                   0.16 s                                       |
|  Eliminated clauses:           0.02 Mb                                      |
|  Simplification time:          9.08 s                                       |
|                                                                             |
=============================[ Search Statistics ]==============================
| Conflicts  |          ORIGINAL         |          LEARNT          | Progress |
|            |    Vars  Clauses Literals |    Limit  Clauses Lit/Cl |          |
================================================================================
|        100 |    1120   266408  1814032 |    97682      100     16 | 11.651 % |
|        250 |    1120   266408  1814032 |   107451      250     19 | 11.651 % |
|        475 |    1120   266408  1814032 |   118196      475     20 | 11.651 % |
|        812 |    1120   266408  1814032 |   130015      812     21 | 11.651 % |
|       1318 |    1120   266408  1814032 |   143017     1318     21 | 11.651 % |
|       2077 |    1120   266408  1814032 |   157319     2077     20 | 11.651 % |
|       3216 |    1120   266408  1814032 |   173051     3216     20 | 11.651 % |
|       4924 |    1120   266408  1814032 |   190356     4924     20 | 11.651 % |
|       7486 |    1120   266408  1814032 |   209392     7486     20 | 11.651 % |
|      11330 |    1120   266408  1814032 |   230331    11330     20 | 11.651 % |
|      17096 |    1120   266408  1814032 |   253364    17096     21 | 11.651 % |
|      25745 |    1120   266408  1814032 |   278700    25745     21 | 11.651 % |
|      38719 |    1120   266408  1814032 |   306570    38719     21 | 11.651 % |
|      58180 |    1120   266408  1814032 |   337227    58180     22 | 11.651 % |
|      87372 |    1120   266408  1814032 |   370950    87372     19 | 11.651 % |
===============================================================================
restarts              : 262
conflicts             : 103756         (295 /sec)
decisions             : 124323         (0.00 % random) (353 /sec)
propagations          : 41416715       (117696 /sec)
conflict literals     : 1819349        (35.58 % deleted)
Memory used           : 48.00 MB
CPU time              : 351.896 s

SATISFIABLE
